(declare-fun epsabs_ack!81 () (_ BitVec 64))
(declare-fun epsrel_ack!82 () (_ BitVec 64))
(declare-fun FPCHECK_FDIV_ACCURACY ((_ FloatingPoint 11 53) (_ BitVec 64)) Bool)
(declare-fun a_ack!83 () (_ BitVec 64))
(declare-fun b_ack!80 () (_ BitVec 64))
(assert (not (fp.lt ((_ to_fp 11 53) epsabs_ack!81)
            ((_ to_fp 11 53) #x0000000000000000))))
(assert (not (fp.lt ((_ to_fp 11 53) epsrel_ack!82)
            ((_ to_fp 11 53) #x0000000000000000))))
(assert (fp.leq ((_ to_fp 11 53) epsabs_ack!81) ((_ to_fp 11 53) #x0000000000000000)))
(assert (not (fp.lt ((_ to_fp 11 53) epsrel_ack!82)
            ((_ to_fp 11 53) #x3cb0000000000000))))
(assert (FPCHECK_FDIV_ACCURACY
  (fp.sub roundNearestTiesToEven
          ((_ to_fp 11 53) b_ack!80)
          ((_ to_fp 11 53) a_ack!83))
  #x4000000000000000))

(check-sat)
(exit)
